c ---- [ banner ] ------------------------------------------------------------
c
c Kissat SAT Solver
c 
c Copyright (c) 2021-2023 Armin Biere University of Freiburg
c Copyright (c) 2019-2021 Armin Biere Johannes Kepler University Linz
c 
c Version 3.1.1 unknown
c gcc (Ubuntu 9.4.0-1ubuntu1~20.04.2) 9.4.0 -W -Wall -O3 -DNDEBUG
c Mon Feb 26 18:18:52 CET 2024 Linux OptiPlex-7080 5.15.0-88-generic x86_64
c
c ---- [ parsing ] -----------------------------------------------------------
c
c opened and reading DIMACS file:
c
c   /home/oliveras/SAT-comp-2023//21667cf04beae213adbab0d48408a7e4-satcoin-genesis-UNSAT-10600.cnf
c
c parsed 'p cnf 134781 648806' header
c closing input after reading 14384710 bytes (14 MB)
c finished parsing after 0.21 seconds
c
c ---- [ options ] -----------------------------------------------------------
c
c --seed=1                         (different from default '0')
c
c ---- [ solving ] -----------------------------------------------------------
c
c  seconds switched conflicts    irredundant  variables
c         MB reductions redundant        trail      remaining
c          level restarts    binary         glue
c
c *  0.21 47 0 0 0  0   0   0 51675 596986 0% 0 125485 93%
c {  0.21 47 0 0 0  0   0   0 51675 596986 0% 0 125485 93%
c i  0.21 47 5 0 0  0   1   0 51675 596986 0% 0 125475 93%
c -  0.56 51 349 0 1 275 1002 440 51098 596986 4% 14 125475 93%
c }  0.56 51 349 1 1 275 1002 440 51098 596986 4% 14 125475 93%
c [  0.56 51 0 1 1 275 1002 440 51098 596986 0% 0 125475 93%
c B  0.56 51 0 1 1 275 1002 440 51098 596986 0% 0 125475 93%
c ]  0.82 51 734 2 1 275 1145 577 51103 596986 23% 22 125475 93%
c {  0.82 52 349 2 1 275 1145 577 51103 596986 4% 14 125475 93%
c i  0.86 54 439 2 1 291 1912 1262 51146 596986 3% 13 125473 93%
c -  0.87 54 432 2 2 298 2002 796 51144 596986 3% 13 125473 93%
c }  0.88 54 421 3 2 301 2146 921 51145 596986 4% 13 125473 93%
c [  0.88 54 734 3 2 301 2146 921 51145 596986 23% 22 125473 93%
c W  0.97 57 734 3 2 301 2146 921 51145 596005 23% 22 125473 93%
c ]  1.03 57 679 4 2 301 2195 970 51145 596005 19% 112 125473 93%
c {  1.03 57 421 4 2 301 2195 970 51145 596005 4% 13 125473 93%
c i  1.03 57 426 4 2 301 2201 975 51145 596005 4% 13 125472 93%
c i  1.03 57 429 4 2 301 2203 976 51145 596005 4% 13 125466 93%
c d  1.28 60 611 4 2 427 3377 2068 51618 595460 3% 12 125437 93%
c b  1.30 60 611 4 2 427 3377 2068 51618 595460 3% 12 125414 93%
c
c  seconds   switched conflicts       irredundant   variables
c         MB  reductions   redundant          trail       remaining
c           level restarts        binary          glue
c
c u  1.33 60 611 4 2 427 3377 2068 51618 595460 3% 12 125414 93%
c v  1.36 60 611 4 2 427 3377 2068 51618 595460 3% 12 125414 93%
c w  1.61 62 611 4 2 427 3377 2077 51666 595324 3% 12 125208 93%
c =  1.73 62 611 4 2 427 3377 2077 53290 593330 3% 12 124337 92%
c d  1.77 62 611 4 2 427 3377 2075 51707 592585 3% 12 124302 92%
c t  1.80 62 611 4 2 427 3377 2075 51686 592585 3% 12 124302 92%
c b  1.81 62 611 4 2 427 3377 2075 51686 592585 3% 12 124297 92%
c i  1.81 62 611 4 2 427 3377 2075 51686 592585 3% 12 124297 92%
c -  1.83 62 667 4 3 427 3416 1233 51099 592585 3% 12 124297 92%
c i  1.86 62 1051 4 3 428 4083 1830 51123 592585 4% 12 124292 92%
c i  1.86 62 1083 4 3 428 4180 1917 51127 592585 4% 12 124289 92%
c i  1.86 62 1118 4 3 428 4299 2016 51141 592585 4% 12 124269 92%
c }  1.87 62 1169 5 3 428 4548 2244 51153 592585 4% 11 124269 92%
c [  1.87 62 679 5 3 428 4548 2244 51153 592585 19% 112 124269 92%
c I  1.87 62 679 5 3 428 4548 2244 51153 592585 19% 112 124269 92%
c ]  2.15 62 549 6 3 428 5059 2753 51153 592585 11% 70 124269 92%
c {  2.15 62 1169 6 3 428 5059 2753 51153 592585 4% 11 124269 92%
c -  2.18 62 1156 6 4 452 5148 1644 51090 592585 4% 11 124269 92%
c i  2.31 62 1066 6 4 573 5683 2121 51091 592585 4% 12 124265 92%
c d  2.45 62 970 6 4 575 6751 3124 51236 592169 3% 11 124236 92%
c
c  seconds   switched conflicts       irredundant   variables
c         MB  reductions   redundant          trail       remaining
c           level restarts        binary          glue
c
c u  2.50 62 970 6 4 575 6751 3093 51264 592169 3% 11 124231 92%
c v  2.57 62 970 6 4 575 6751 3090 51264 592169 3% 11 124231 92%
c w  2.76 66 970 6 4 575 6751 3205 51320 591968 3% 11 124228 92%
c =  2.85 66 970 6 4 575 6751 3205 52026 591949 3% 11 123875 92%
c d  2.88 66 970 6 4 575 6751 3181 51201 591917 3% 11 123806 92%
c t  2.91 66 970 6 4 575 6751 3181 51135 591917 3% 11 123806 92%
c i  2.92 66 970 6 4 575 6751 3181 51135 591917 3% 11 123806 92%
c -  3.01 66 919 6 5 575 7149 2232 51106 591917 3% 11 123806 92%
c } 53.01 68 696 7 5 576 9128 4190 51113 591917 22% 10 123806 92%
c [ 53.01 68 549 7 5 576 9128 4190 51113 591917 11% 70 123806 92%
c B 53.01 68 549 7 5 576 9128 4190 51113 591917 11% 70 123806 92%
c - 53.07 68 549 7 6 576 9386 2896 51114 591917 10% 85 123806 92%
c - 53.33 68 456 7 7 578 11835 3103 51114 591917 6% 83 123806 92%
c d 53.42 68 434 7 7 579 13769 4942 51093 591913 6% 59 123797 92%
c b 53.46 68 434 7 7 579 13769 4942 51093 591913 6% 59 123792 92%
c u 53.50 68 434 7 7 579 13769 4931 51104 591913 6% 59 123792 92%
c v 54.91 68 434 7 7 579 13769 4913 51122 591913 6% 59 123792 92%
c w 55.52 68 434 7 7 579 13769 5704 55515 586659 6% 59 123788 92%
c = 56.00 68 434 7 7 579 13769 5704 58223 586644 6% 59 122434 91%
c d 56.04 68 434 7 7 579 13769 5696 55518 586627 6% 59 122434 91%
c
c  seconds   switched  conflicts       irredundant   variables
c         MB  reductions    redundant          trail       remaining
c           level restarts         binary          glue
c
c d 56.05 68 434 7 7 579 13769 5696 55514 586627 6% 59 122432 91%
c t 56.09 68 434 7 7 579 13769 5696 47401 586627 6% 59 122432 91%
c i 56.10 68 434 7 7 579 13769 5696 47401 586627 6% 59 122432 91%
c - 56.76 68 414 7 8 580 14480 3929 47374 586627 6% 58 122432 91%
c W 59.41 69 410 7 8 580 14658 4105 47374 586627 7% 61 122432 91%
c s 59.95 71 412 7 8 581 16889 6316 47656 584914 7% 54 122432 91%
c e 60.62 81 412 7 8 581 16889 6316 7097 568570 7% 54 82636 61%
c s 60.68 81 412 7 8 581 16889 6316 7189 548857 7% 54 82636 61%
c e 60.81 81 412 7 8 581 16889 6316 7188 548858 7% 54 82635 61%
c ^ 60.81 81 412 7 8 581 16889 6316 7188 548858 7% 54 82635 61%
c - 60.90 77 408 7 9 581 17308 1845 7188 548858 7% 53 82635 61%
c - 65.21 77 366 7 10 582 20309 2310 7188 548858 9% 56 82635 61%
c O 67.64 77 350 7 10 583 22186 4159 7198 548858 9% 57 82635 61%
c - 72.62 77 343 7 11 584 23471 2602 7200 548858 10% 63 82635 61%
c u 77.80 77 339 7 11 585 24642 3746 7227 548858 12% 74 82635 61%
c v 77.86 77 339 7 11 585 24642 3744 7229 548858 12% 74 82635 61%
c w 78.47 82 339 7 11 585 24642 7392 7284 545155 12% 74 82635 61%
c t 79.27 82 339 7 11 585 24642 7392 7219 545155 12% 74 82635 61%
c - 86.08 82 333 7 12 587 26788 6548 7222 545155 13% 78 82635 61%
c ] 96.23 82 328 8 12 588 29124 8861 7224 545155 14% 87 82635 61%
c
c  seconds   switched   conflicts      irredundant    variables
c         MB   reductions    redundant          trail      remaining
c           level  restarts         binary          glue
c
c { 96.23 82 696 8 12 588 29124 8861 7224 545155 22% 10 82635 61%
c - 96.88 82 643 8 13 901 30252 6993 7270 545155 20% 11 82635 61%
c s 101.33 82 578 8 13 1000 33394 10022 7322 545148 18% 11 82635 61%
c e 101.85 82 578 8 13 1000 33394 10022 4915 548703 18% 11 81262 60%
c s 101.87 82 578 8 13 1000 33394 10022 4923 548672 18% 11 81262 60%
c e 101.90 82 578 8 13 1000 33394 10022 4920 548676 18% 11 81261 60%
c ^ 101.90 82 578 8 13 1000 33394 10022 4920 548676 18% 11 81261 60%
c - 101.94 82 602 8 14 1000 33859 7212 4922 548676 17% 11 81261 60%
c } 102.05 82 604 9 14 1007 35284 8579 4929 548676 16% 11 81261 60%
c [ 102.05 82 328 9 14 1007 35284 8579 4929 548676 14% 87 81261 60%
c B 102.05 82 328 9 14 1007 35284 8579 4929 548676 14% 87 81261 60%
c - 105.69 82 322 9 15 1009 37602 7898 4934 548676 14% 87 81261 60%
c ] 107.34 82 321 10 15 1009 37960 8254 4935 548676 14% 89 81261 60%
c { 107.34 82 604 10 15 1009 37960 8254 4935 548676 16% 11 81261 60%
c u 109.86 82 576 10 15 1139 39317 9564 4945 548676 16% 11 81261 60%
c v 110.87 82 576 10 15 1139 39317 9563 4946 548676 16% 11 81261 60%
c w 111.50 82 576 10 15 1139 39317 9676 4967 548542 16% 11 81261 60%
c = 112.18 82 576 10 15 1139 39317 9676 4979 548542 16% 11 81255 60%
c d 112.21 82 576 10 15 1139 39317 9676 4967 548542 16% 11 81255 60%
c t 112.26 82 576 10 15 1139 39317 9676 4940 548542 16% 11 81255 60%
c
c  seconds     switched    conflicts      irredundant    variables
c          MB    reductions     redundant          trail      remaining
c            level    restarts         binary          glue
c
c - 122.54 82 585 10 16 1317 41477 9102 4955 548542 17% 11 81255 60%
c - 126.18 82 551 10 17 1395 45479 10263 4984 548542 15% 11 81255 60%
c } 126.27 82 543 11 17 1395 46590 11360 4985 548542 14% 10 81255 60%
c [ 126.27 82 321 11 17 1395 46590 11360 4985 548542 14% 89 81255 60%
c W 126.62 82 334 11 17 1395 47506 12268 4986 548542 14% 87 81255 60%
c - 138.14 84 329 11 18 1397 49602 10858 4986 548542 15% 94 81255 60%
c ] 140.31 84 329 12 18 1397 49909 11165 4986 548542 16% 96 81255 60%
c { 140.32 84 543 12 18 1397 49909 11165 4986 548542 14% 10 81255 60%
c - 167.41 84 517 12 19 1401 53846 12080 5011 548542 16% 10 81255 60%
c - 231.48 84 436 12 20 1401 58205 13639 5016 548542 23% 10 81255 60%
c u 232.11 84 436 12 20 1401 58216 13627 5039 548542 23% 10 81255 60%
c v 234.03 84 436 12 20 1401 58216 13621 5045 548542 23% 10 81255 60%
c w 234.72 84 436 12 20 1401 58216 13689 5046 548473 23% 10 81255 60%
c = 235.41 84 436 12 20 1401 58216 13689 5048 548473 23% 10 81254 60%
c d 235.44 84 436 12 20 1401 58216 13689 5046 548473 23% 10 81254 60%
c t 235.49 84 436 12 20 1401 58216 13689 5017 548473 23% 10 81254 60%
c } 267.97 84 433 13 20 1459 61388 16798 5028 548473 25% 9 81254 60%
c [ 267.97 84 329 13 20 1459 61388 16798 5028 548473 16% 96 81254 60%
c I 274.09 84 328 13 20 1459 62410 17816 5028 548473 17% 101 81254 60%
c - 274.11 84 327 13 21 1460 62677 14669 5028 548473 16% 100 81254 60%
c
c  seconds     switched    conflicts       irredundant     variables
c          MB    reductions      redundant          trail       remaining
c            level    restarts          binary          glue
c
c - 293.25 84 316 13 22 1463 67259 14703 5032 548473 18% 107 81254 60%
c s 302.89 84 313 13 22 1464 69149 16587 5033 548471 19% 111 81254 60%
c e 303.38 62 313 13 22 1464 69149 16587 4739 549098 19% 111 81074 60%
c s 303.39 62 313 13 22 1464 69149 16587 4742 548872 19% 111 81074 60%
c e 303.41 62 313 13 22 1464 69149 16587 4737 548884 19% 111 81070 60%
c ^ 303.41 62 313 13 22 1464 69149 16587 4737 548884 19% 111 81070 60%
c - 313.93 74 308 13 23 1465 71949 13371 4739 548884 19% 115 81070 60%
c - 334.25 74 303 13 24 1468 76746 13770 4740 548884 20% 120 81070 60%
c B 345.01 74 299 13 24 1471 80213 17227 4741 548884 20% 120 81070 60%
c u 349.87 76 298 13 24 1471 81469 18471 4749 548884 20% 120 81070 60%
c v 350.18 76 298 13 24 1471 81469 18471 4749 548884 20% 120 81070 60%
c w 350.88 78 298 13 24 1471 81469 18599 4765 548740 20% 120 81070 60%
c t 351.75 78 298 13 24 1471 81469 18599 4753 548740 20% 120 81070 60%
c - 352.80 78 298 13 25 1471 81645 14387 4753 548740 20% 121 81070 60%
c ] 371.91 78 296 14 25 1472 84720 17458 4753 548740 21% 126 81070 60%
c { 371.91 78 433 14 25 1472 84720 17458 4753 548740 25% 9 81070 60%
c - 403.45 78 408 14 26 1499 86645 15441 4755 548740 28% 9 81070 60%
c - 465.21 78 383 14 27 1505 91744 17407 4766 548740 32% 9 81070 60%
c - 552.35 80 332 14 28 1505 96943 19442 4773 548740 37% 9 81070 60%
c } 600.32 80 311 15 28 1505 99435 21923 4778 548740 40% 9 81070 60%
c
c  seconds     switched    conflicts       irredundant     variables
c          MB    reductions      redundant          trail       remaining
c            level    restarts          binary          glue
c
c [ 600.32 80 296 15 28 1505 99435 21923 4778 548740 21% 126 81070 60%
c W 608.69 80 295 15 28 1506 101125 23603 4780 548740 21% 126 81070 60%
c - 613.37 80 294 15 29 1507 102234 20399 4780 548740 22% 125 81070 60%
c - 632.81 80 293 15 30 1510 107619 19634 4782 548740 22% 124 81070 60%
c u 633.87 80 293 15 30 1511 109242 21078 4939 548740 21% 123 81068 60%
c v 634.68 80 293 15 30 1511 109242 18940 7068 548740 21% 123 81068 60%
c w 635.36 80 293 15 30 1511 109242 18963 7089 548681 21% 123 81066 60%
c = 636.09 80 293 15 30 1511 109242 18963 7127 548667 21% 123 81047 60%
c d 636.13 80 293 15 30 1511 109242 18906 7076 548667 21% 123 81047 60%
c t 636.18 80 293 15 30 1511 109242 18906 4798 548667 21% 123 81047 60%
c i 636.18 80 293 15 30 1511 109242 18906 4798 548667 21% 123 81047 60%
c - 650.97 80 292 15 31 1513 113096 17836 4759 548667 21% 124 81047 60%
c - 658.79 80 291 15 32 1517 118663 18233 4760 548667 20% 121 81047 60%
c - 677.46 80 289 15 33 1519 124319 18693 4763 548667 20% 121 81047 60%
c O 682.87 80 289 15 33 1519 125350 19721 4764 548667 21% 122 81047 60%
c s 690.11 80 288 15 33 1519 126741 21108 4769 548655 21% 123 81047 60%
c e 690.78 80 288 15 33 1519 126741 21108 4434 570167 21% 123 74903 56%
c s 690.84 80 288 15 33 1519 126741 21108 4450 569742 21% 123 74903 56%
c e 690.88 80 288 15 33 1519 126741 21108 4440 569777 21% 123 74895 56%
c ^ 690.88 80 288 15 33 1519 126741 21108 4440 569777 21% 123 74895 56%
c
c  seconds     switched    conflicts        irredundant     variables
c          MB    reductions       redundant          trail       remaining
c            level    restarts           binary          glue
c
c - 710.28 84 288 15 34 1519 130063 15265 4443 569777 22% 129 74895 56%
c - 739.09 86 288 15 35 1522 135894 15902 4443 569777 22% 134 74895 56%
c u 758.65 86 287 15 35 1526 141697 21662 4460 569777 22% 136 74895 56%
c v 758.90 86 287 15 35 1526 141697 21662 4460 569777 22% 136 74895 56%
c w 759.66 86 287 15 35 1526 141697 21774 4577 569548 22% 136 74895 56%
c t 760.25 86 287 15 35 1526 141697 21774 4497 569548 22% 136 74895 56%
c - 760.35 86 287 15 36 1526 141811 16474 4497 569548 22% 136 74895 56%
c - 779.54 88 285 15 37 1529 147813 16841 4497 569548 22% 137 74895 56%
c ] 801.83 88 283 16 37 1532 152461 21484 4497 569548 23% 140 74895 56%
c { 801.83 88 311 16 37 1532 152461 21484 4497 569548 40% 9 74895 56%
c - 830.43 88 301 16 38 1537 153895 18326 4499 569547 41% 9 74895 56%
c i 880.53 88 284 16 38 1537 156254 20665 4509 569547 44% 8 74890 56%
c i 919.76 88 276 16 38 1549 158368 22742 4522 569545 45% 8 74887 56%
c i 935.59 88 278 16 38 1550 159266 23623 4532 569545 46% 8 74880 56%
c - 935.68 88 279 16 39 1550 160059 17246 4562 569545 45% 8 74880 56%
c i 943.44 88 296 16 39 1566 163957 21038 4575 569544 42% 8 74867 56%
c i 949.71 88 294 16 39 1566 164229 21301 4583 569544 42% 8 74857 56%
c - 950.25 88 289 16 40 1566 166305 17415 4574 569544 40% 8 74857 56%
c } 971.64 88 265 17 40 1566 170798 21778 4579 569543 39% 8 74857 56%
c [ 971.64 88 283 17 40 1566 170798 21778 4579 569543 23% 140 74857 56%
c
c  seconds     switched    conflicts        irredundant     variables
c          MB    reductions       redundant          trail       remaining
c            level    restarts           binary          glue
c
c B 971.64 88 283 17 40 1566 170798 21778 4579 569543 23% 140 74857 56%
c - 977.70 88 283 17 41 1567 172630 21143 4579 569543 23% 140 74857 56%
c - 1009.14 88 282 17 42 1572 179034 21725 4579 569543 23% 144 74857 56%
c d 1009.22 88 282 17 42 1572 179140 21655 4861 568179 23% 144 74837 56%
c d 1009.24 88 282 17 42 1572 179140 21372 4649 568090 23% 144 74765 55%
c b 1009.26 88 282 17 42 1572 179140 21372 4649 568090 23% 144 74761 55%
c u 1017.00 88 282 17 42 1572 179140 21358 4661 568090 23% 144 74761 55%
c v 1024.81 88 282 17 42 1572 179140 21358 4661 568090 23% 144 74761 55%
c w 1025.59 88 282 17 42 1572 179140 21526 4998 567523 23% 144 74758 55%
c = 1026.31 88 282 17 42 1572 179140 21526 5169 567400 23% 144 74669 55%
c d 1026.35 88 282 17 42 1572 179140 21336 4938 567396 23% 144 74669 55%
c t 1026.39 88 282 17 42 1572 179140 21336 4525 567396 23% 144 74669 55%
c i 1026.40 88 282 17 42 1572 179140 21336 4525 567396 23% 144 74669 55%
c - 1060.58 88 281 17 43 1575 185514 19724 4479 567396 24% 149 74669 55%
c - 1088.91 89 280 17 44 1579 192071 19739 4479 567396 24% 151 74669 55%
c - 1123.45 89 279 17 45 1580 198704 19929 4481 567396 25% 155 74669 55%
c ] 1130.30 89 279 18 45 1580 199752 20977 4481 567396 25% 156 74669 55%
c { 1130.30 89 265 18 45 1580 199752 20977 4481 567396 39% 8 74669 55%
c i 1130.31 89 266 18 45 1582 199824 21034 4487 567396 39% 8 74668 55%
c i 1131.37 89 265 18 45 1582 199939 21134 4493 567394 39% 8 74664 55%
c
c   seconds     switched    conflicts        irredundant   variables
c           MB    reductions       redundant          trail     remaining
c             level    restarts           binary         glue
c
c i 1134.37 89 264 18 45 1582 200107 21292 4502 567394 39% 8 74645 55%
c i 1134.43 89 264 18 45 1582 200113 21294 4505 567394 39% 8 74644 55%
c i 1135.58 89 264 18 45 1582 200164 21339 4510 567394 39% 8 74598 55%
c i 1135.80 89 264 18 45 1582 200174 21346 4512 567394 39% 8 74575 55%
c i 1135.82 89 265 18 45 1600 200621 21757 4538 567394 39% 8 74572 55%
c i 1135.83 89 265 18 45 1600 200623 21757 4539 567394 39% 8 74569 55%
c i 1135.83 89 265 18 45 1600 200625 21757 4540 567393 39% 8 74567 55%
c i 1135.83 89 265 18 45 1600 200628 21757 4542 567393 39% 8 74563 55%
c } 1136.03 89 265 18 45 1600 200642 21766 4545 567393 39% 8 108 0%
c 0 1136.03 89 265 18 45 1600 200642 21766 4545 567393 39% 8 108 0%
c
c ---- [ result ] ------------------------------------------------------------
c
s UNSATISFIABLE
c
c ---- [ profiling ] ---------------------------------------------------------
c
c        1092.76   96.19 %  search
c         600.39   52.85 %  focused
c         492.37   43.34 %  stable
c          43.06    3.79 %  simplify
c          35.90    3.16 %  probe
c          28.89    2.54 %  vivify
c           5.56    0.49 %  sweep
c           4.14    0.36 %  walking
c           3.01    0.27 %  eliminate
c           1.14    0.10 %  substitute
c           0.61    0.05 %  reduce
c           0.33    0.03 %  subsume
c           0.21    0.02 %  parse
c           0.20    0.02 %  transitive
c           0.11    0.01 %  backbone
c           0.04    0.00 %  warmup
c =============================================
c        1136.03  100.00 %  total
c
c ---- [ statistics ] --------------------------------------------------------
c
c chronological:                         1283                1 %  conflicts
c conflicts:                           200642              176.62 per second
c decisions:                           976554                4.87 per conflict
c eliminated:                           47507               35 %  variables
c jumped_reasons:                    12508144                0 %  propagations
c propagations:                    4047925885          3563220    per second
c queue_decisions:                     465170               48 %  decision
c random_decisions:                    303345               31 %  decision
c random_sequences:                        42             4777    interval
c reductions:                              45             4459    interval
c rephased:                                13            15434    interval
c restarts:                              1600              125.40 interval
c score_decisions:                     208039               21 %  decision
c strengthened:                         12704                0 %  checks
c substituted:                           2769                2 %  variables
c subsumed:                             21725                0 %  checks
c switched:                                18            11147    interval
c vivified:                             23797                1 %  checks
c vivify_checks:                      4586617           458662    per vivify
c vivify_units:                            18                0 %  variables
c walk_improved:                            4              100 %  walks
c walks:                                    4            50160    interval
c
c ---- [ resources ] ---------------------------------------------------------
c
c maximum-resident-set-size:         93102080 bytes         89 MB
c process-time:                        18m 56s            1136.03 seconds
c
c ---- [ shutting down ] -----------------------------------------------------
c
c exit 20
